objective value:                                   10
lambda[0,28]*                                       3 	(obj:0)
lambda[1,71]*                                       1 	(obj:10)
lambda[0,31]*                                       2 	(obj:0)
lambda[0,32]*                                       2 	(obj:0)
lambda[0,37]*                                       2 	(obj:0)
lambda[0,42]*                                       1 	(obj:0)
